p cnf 70 186
-19 4 54 0
5 -9 53 0
10 -20 35 0
29 17 -33 0
-23 25 26 0
-1 -28 -30 0
-29 -17 -33 0
31 -33 39 0
62 65 -67 0
-51 21 61 0
15 -48 49 0
15 48 -49 0
19 4 -54 0
10 6 -65 0
51 21 -61 0
-18 -2 -63 0
-30 -37 -40 0
-14 -6 -27 0
51 -21 61 0
30 37 -40 0
-19 -4 -54 0
-23 1 50 0
-58 57 60 0
67 -68 69 0
-15 34 37 0
21 -36 41 0
-56 59 62 0
44 -46 47 0
-67 68 69 0
-17 -13 -51 0
-17 13 51 0
-20 -63 -64 0
61 -60 68 0
17 13 -51 0
-7 8 31 0
18 -2 63 0
11 35 -36 0
62 -65 67 0
-14 6 27 0
-55 50 57 0
-26 38 43 0
-22 7 59 0
-49 12 52 0
58 57 -60 0
-56 -59 -62 0
-62 65 67 0
-58 -57 -60 0
42 16 -45 0
15 -34 37 0
29 -17 33 0
-44 -46 -47 0
20 -63 64 0
-2 12 25 0
7 8 -31 0
2 12 -25 0
20 63 -64 0
45 40 -46 0
-55 -50 -57 0
-47 -70 0
-62 -65 -67 0
14 24 -48 0
19 -5 29 0
-15 -48 -49 0
-52 -54 -55 0
14 -6 27 0
-45 40 46 0
-14 24 48 0
-23 -1 -50 0
-31 -33 -39 0
-61 60 68 0
22 -7 59 0
-18 13 32 0
-53 -16 -58 0
-30 37 40 0
-21 36 41 0
3 11 -56 0
22 4 -28 0
-11 35 36 0
19 -4 54 0
-10 6 65 0
-66 -69 -70 0
47 70 0
42 -16 45 0
-42 -16 -45 0
-3 11 56 0
-22 -7 -59 0
-39 41 42 0
-64 -8 -66 0
-64 8 66 0
-27 43 44 0
56 59 -62 0
-18 -13 -32 0
49 -12 52 0
23 -1 50 0
52 -54 55 0
-2 -12 -25 0
55 50 -57 0
10 20 -35 0
39 -41 42 0
30 -37 40 0
-31 33 39 0
56 -59 62 0
14 -24 48 0
31 33 -39 0
-39 -41 -42 0
-15 -34 -37 0
14 6 -27 0
2 -12 25 0
-27 -43 -44 0
18 13 -32 0
5 9 -53 0
-52 54 55 0
32 24 -34 0
-67 -68 -69 0
17 -13 51 0
7 -8 31 0
-15 48 49 0
53 -16 58 0
-32 -24 -34 0
-29 17 33 0
11 -35 36 0
21 36 -41 0
-10 20 35 0
26 -38 43 0
-5 9 53 0
32 -24 34 0
-61 -60 -68 0
-66 69 70 0
-22 4 28 0
-19 -5 -29 0
-19 5 29 0
18 -13 32 0
23 1 -50 0
-1 28 30 0
-10 -20 -35 0
55 -50 57 0
-23 -25 -26 0
-26 -38 -43 0
53 16 -58 0
-18 2 63 0
-53 16 58 0
66 -69 70 0
23 25 -26 0
64 -8 66 0
-5 -9 -53 0
-14 -24 -48 0
10 -6 65 0
-42 16 45 0
66 69 -70 0
-45 -40 -46 0
-21 -36 -41 0
-22 -4 -28 0
9 3 -38 0
27 -43 44 0
27 43 -44 0
-7 -8 -31 0
58 -57 60 0
-10 -6 -65 0
-20 63 64 0
64 8 -66 0
18 2 -63 0
-49 -12 -52 0
3 -11 56 0
49 12 -52 0
22 7 -59 0
-11 -35 -36 0
1 28 -30 0
39 41 -42 0
-9 3 38 0
15 34 -37 0
19 5 -29 0
-9 -3 -38 0
67 68 -69 0
9 -3 38 0
-3 -11 -56 0
-51 -21 -61 0
44 46 -47 0
1 -28 30 0
61 60 -68 0
26 38 -43 0
45 -40 46 0
-44 46 47 0
-32 24 34 0
22 -4 28 0
23 -25 26 0
52 54 -55 0
